files/upTests/__reps/RelationIntMatrix2/set_of_first/0002.eprime
language ESSENCE' 1.0

find rs_SetExplicit_RelationAsSet_SetExplicitVarSize_tuple1:
        matrix indexed by [int(1..2), int(1..20)] of bool
find rs_SetExplicit_RelationAsSet_SetExplicitVarSize_tuple2_tuple1:
        matrix indexed by [int(1..2), int(1..20)] of int(0..3)
find rs_SetExplicit_RelationAsSet_SetExplicitVarSize_tuple2_tuple2:
        matrix indexed by [int(1..2), int(1..20)] of int(0..4)
such that
    (sum v__0 : int(1..20)
         . rs_SetExplicit_RelationAsSet_SetExplicitVarSize_tuple1[1, v__0] * 1)
    <
    (sum v__0 : int(1..20)
         . rs_SetExplicit_RelationAsSet_SetExplicitVarSize_tuple1[2, v__0] * 1)
    \/
    (sum v__0 : int(1..20)
         . rs_SetExplicit_RelationAsSet_SetExplicitVarSize_tuple1[1, v__0] * 1)
    =
    (sum v__0 : int(1..20)
         . rs_SetExplicit_RelationAsSet_SetExplicitVarSize_tuple1[2, v__0] * 1)
    /\
    (exists v__0 : int(1..20)
         . rs_SetExplicit_RelationAsSet_SetExplicitVarSize_tuple1[1, v__0]
           /\
           rs_SetExplicit_RelationAsSet_SetExplicitVarSize_tuple1[2, v__0]
           /\
           (rs_SetExplicit_RelationAsSet_SetExplicitVarSize_tuple2_tuple1[1, v__0]
            <
            rs_SetExplicit_RelationAsSet_SetExplicitVarSize_tuple2_tuple1[2, v__0]
            \/
            rs_SetExplicit_RelationAsSet_SetExplicitVarSize_tuple2_tuple1[1, v__0]
            =
            rs_SetExplicit_RelationAsSet_SetExplicitVarSize_tuple2_tuple1[2, v__0]
            /\
            rs_SetExplicit_RelationAsSet_SetExplicitVarSize_tuple2_tuple2[1, v__0]
            <
            rs_SetExplicit_RelationAsSet_SetExplicitVarSize_tuple2_tuple2[2, v__0])),
    forAll v__0 : int(1..2)
        . (exists v__1 : int(1..20)
               . rs_SetExplicit_RelationAsSet_SetExplicitVarSize_tuple1[v__0, v__1]
                 /\
                 (rs_SetExplicit_RelationAsSet_SetExplicitVarSize_tuple2_tuple1[v__0, v__1] = 1
                  /\
                  rs_SetExplicit_RelationAsSet_SetExplicitVarSize_tuple2_tuple2[v__0, v__1] = 2))
          /\
          (sum v__1 : int(1..20)
               . (rs_SetExplicit_RelationAsSet_SetExplicitVarSize_tuple2_tuple1[v__0, v__1] = 2
                  /\
                  rs_SetExplicit_RelationAsSet_SetExplicitVarSize_tuple1[v__0, v__1])
                 *
                 1)
          =
          3,
    forAll v__0 : int(1..2)
        . (forAll v__1 : int(1..19)
               . rs_SetExplicit_RelationAsSet_SetExplicitVarSize_tuple1[v__0, v__1]
                 /\
                 rs_SetExplicit_RelationAsSet_SetExplicitVarSize_tuple1[v__0, v__1 + 1]
                 ->
                 rs_SetExplicit_RelationAsSet_SetExplicitVarSize_tuple2_tuple1[v__0, v__1]
                 <
                 rs_SetExplicit_RelationAsSet_SetExplicitVarSize_tuple2_tuple1[v__0, v__1 + 1]
                 \/
                 rs_SetExplicit_RelationAsSet_SetExplicitVarSize_tuple2_tuple1[v__0, v__1]
                 =
                 rs_SetExplicit_RelationAsSet_SetExplicitVarSize_tuple2_tuple1[v__0, v__1 + 1]
                 /\
                 rs_SetExplicit_RelationAsSet_SetExplicitVarSize_tuple2_tuple2[v__0, v__1]
                 <
                 rs_SetExplicit_RelationAsSet_SetExplicitVarSize_tuple2_tuple2[v__0, v__1 + 1])
          /\
          (forAll v__1 : int(1..19)
               . rs_SetExplicit_RelationAsSet_SetExplicitVarSize_tuple1[v__0, v__1]
                 <=
                 rs_SetExplicit_RelationAsSet_SetExplicitVarSize_tuple1[v__0, v__1 + 1])
